613 442
803 374
308 295
1094 191
642 145
449 197
310 446
1004 83
131 358
145 215
277 180
939 276
1044 305
379 136
288 378
221 174
58 167
503 151
585 153
211 370
926 355
77 46
855 296
869 209
980 188
310 210
746 433
800 121
864 152
1157 360
670 506
305 373
571 456
221 107
89 307
1089 120
519 89
621 301
115 42
538 269
277 129
431 374
275 239
803 328
110 295
718 391
965 401
162 415
1003 284
573 311
571 363
767 116
925 102
306 129
668 93
1038 344
596 36
715 215
128 104
686 171
876 109
877 262
838 419
235 296
1125 290
576 214
395 82
528 332
914 165
479 429
499 212
986 352
1075 374
425 65
1060 84
1153 170
235 140
447 102
732 460
674 438
352 131